
  22   10
  10   10   10   10   10   10   10   10   10   10

   0   0   0   0   0   0   0   0   0   0   0   4 2 7 10 13 
   5  10  10  10  10  10  10  10  10  10  10   3 21 20 3 
   1  10  10  10  10  10  10  10  10  10  10   1 4 
  10  10  10  10  10  10  10  10  10  10  10   1 5 
   6  10  10  10  10  10  10  10  10  10  10   2 19 6 
   8  10  10  10  10  10  10  10  10  10  10   3 18 17 8 
   4  10  10  10  10  10  10  10  10  10  10   5 18 17 16 15 11 
   7  10  10  10  10  10  10  10  10  10  10   2 16 9 
   6  10  10  10  10  10  10  10  10  10  10   2 15 11 
   3  10  10  10  10  10  10  10  10  10  10   2 21 19 
   5  10  10  10  10  10  10  10  10  10  10   1 12 
   2  10  10  10  10  10  10  10  10  10  10   1 14 
   1  10  10  10  10  10  10  10  10  10  10   1 20 
   1  10  10  10  10  10  10  10  10  10  10   1 22
   6  10  10  10  10  10  10  10  10  10  10   1 22
   3  10  10  10  10  10  10  10  10  10  10   1 22
   6  10  10  10  10  10  10  10  10  10  10   1 22
   5  10  10  10  10  10  10  10  10  10  10   1 22
   8  10  10  10  10  10  10  10  10  10  10   1 22
   1  10  10  10  10  10  10  10  10  10  10   1 22
   8  10  10  10  10  10  10  10  10  10  10   1 22
   0   0   0   0   0   0   0   0   0   0   0   0 
